c status 9 1469274441175
c status 8 1469274441175
c status 7 1469274441175
s td 6 7 12
b 1 1 10 11 4 8 2
b 2 10 11 12 4 8 3 2
b 3 11 5 12 4 8 3 2
b 4 6 7 9 5 12 3
b 5 7 9 5 12 4 8 3
b 6 9 5 12 4 8 3 2
1 2
2 3
3 6
6 5
5 4
